c
c SAT instance in DIMACS CNF input format.
c
p cnf 10 42
-2 8 -9 0
7 2 10 0
-6 1 -8 0
3 -6 7 0
-9 3 4 0
-10 -8 9 0
-2 -6 -9 0
8 -10 7 0
-5 -4 -6 0
7 -9 5 0
-8 4 5 0
3 7 10 0
-5 -6 -8 0
-1 8 -6 0
1 -3 4 0
1 2 -5 0
4 -10 7 0
-5 2 3 0
8 7 5 0
9 -3 4 0
-3 1 -10 0
8 2 -4 0
2 -8 9 0
4 -7 2 0
-2 -7 10 0
-6 -10 -1 0
-9 5 -8 0
8 10 1 0
-7 -2 -10 0
-10 -5 4 0
-7 5 -4 0
-3 -1 -8 0
-1 5 7 0
2 -4 -3 0
-2 3 8 0
-2 -9 -5 0
-8 5 2 0
6 -10 2 0
-4 6 -9 0
9 10 -7 0
-4 -10 7 0
-10 4 7 0
